C101

VEHICLE
NUMBER     CAPACITY
  25         200

CUSTOMER
CUST NO.  XCOORD.   YCOORD.    DEMAND   READY TIME  DUE DATE   SERVICE   TIME
 
    0      39         44         0         0        1236         0
    1      32         30         10         359        412         90
    2      40         15         30         35        87         90
    3      45         30         20         734        777         90
    4      30         30         15         541        600         90
    5      48         30         25         632        693         90
    6      38         5          10         471        534         90
    7      35         5          20         562        629         90
    8      85         25         15         769        820         90
    9      35         30         20         264        321         90
    10      42         15        15         95        158         90
    11      22         85        10         567        620         90
    12      38         70        30         534        605         90
    13      62         80        20         196        239         90
    14      60         80        15         95        156         90
    15      20         85        25         475        528         90
    16      67         85        10         368        441         90
    17      15         80        20         278        345         90
    18      15         75        15         179        254         90
    19      20         80        20         384        429         90
    20      40         69        15         621        702         90

